c 
c MolecularSimulation 0.9.3
c Simulation written: Jan 13 2012 -- 15:17:57
c Test: Distribution
c Input: ./data/testCNF/SWEEP_R5_K3_N20_M92_S000.cnf
c 
s SATISFIABLE
v 1 2 -3 4 -5 6 7 -8 9 10 11 -12 13 -14 -15 -16 17 18 19 -20 0
c algorithmTime:  306
c solutionMemory: 246
c mixCount:       273
c extractCount:   0
c appendCount:    5151497
c splitCount:     273
c spliceCount:    2352537
c purifyCount:    91
c 
